n_machines = 3;
n_resources = 5;
n_jobs = 33;
horizon = 16381;
LB = 6926;
n_jobs_per_resource = [10, 15, 2, 5, 1];
duration = [279, 449, 588, 843, 831, 344, 468, 309, 98, 843, 38, 896, 911, 38, 231, 986, 990, 292, 8, 102, 487, 834, 736, 22, 355, 234, 979, 540, 543, 32, 712, 853, 510]